0000000000000000
0000000000000000
0000000000000000
0000000000000000
0000000000000000
0001111111110000
0000000000100000
0000000000100000
0000000000100000
0000000000100000
0000000000100000
0000000000000000
0000000000000000
0000000000000000
0000000000000000
0000000000000000